(set-logic HORN)
(declare-fun state (Int (Array Int Int) (Array Int Int) (Array Int Int) (Array Int Int) (Array Int Int) (Array Int Int) Int Int (Array Int Int) (Array Int Int) Int Int (Array Int Int) (Array Int Int) Int Int Int Int Int Int Int Int Int Int Int Int Int Int Int Int Int Int Int Int Int Int Int Int Int Int Int Int Bool Bool Bool Bool Bool (Array Int Int) Int) Bool)
(assert (forall ((|A_30| Int) (|B_30| (Array Int Int)) (|C_30| (Array Int Int)) (|D_30| (Array Int Int)) (|E_30| (Array Int Int)) (|F_30| (Array Int Int)) (|G_30| (Array Int Int)) (|H_30| Int) (|I_30| Int) (|J_30| (Array Int Int)) (|K_30| (Array Int Int)) (|L_30| Int) (|M_30| Int) (|N_30| (Array Int Int)) (|O_30| (Array Int Int)) (|P_30| Int) (|Q_30| Int) (|R_30| Int) (|S_30| Int) (|T_30| Int) (|U_30| Int) (|V_30| Int) (|W_30| Int) (|X_30| Int) (|Y_30| Int) (|Z_30| Int) (|A1_30| Int) (|B1_30| Int) (|C1_30| Int) (|D1_30| Int) (|E1_30| Int) (|F1_30| Int) (|G1_30| Int) (|H1_30| Int) (|I1_30| Int) (|J1_30| Int) (|K1_30| Int) (|L1_30| Int) (|M1_30| Int) (|N1_30| Int) (|O1_30| Int) (|P1_30| Int) (|Q1_30| Int) (|S1_24| Bool) (|.loc.5| Bool) (|.loc.6| Bool) (|.loc.7| Bool) (|.loc.8| Bool) (|S1_0| (Array Int Int)) (|S1_20| Int) (|.x.1310| Int) (|.x.1294| Int) (|.x.1290| (Array Int Int)) (|.x.1288| Int) (|.x.1286| (Array Int Int)) (|.x.1284| Int) (|.x.1282| (Array Int Int)) (|.x.1280| (Array Int Int)) (|.x.1276| Int) (|.x.1278| (Array Int Int)) (|.x.1299| Int) (|R1_30| Bool) (|.x.1317| Int) (|.loc.10| Bool) (|.loc.11| Bool) (|.x.1304| Int) (|.x.1316| Int) (|.x.1315| Int) (|.loc.9| Bool) (|.x.1279| (Array Int Int)) (|.x.1312| Int) (|.x.1318| Int) (|.loc.12| Bool) (|.x.1293| Int) (|.x.1292| Int) (|.x.1296| Int) (|.x.1302| Int) (|.x.1305| Int) (|.x.1309| Int) (|.x.1311| Int) (|.x.1303| Int) (|.x.1289| (Array Int Int)) (|.x.1277| (Array Int Int)) (|.x.1281| (Array Int Int)) (|.x.1291| Int) (|.x.1297| Int) (|.x.1285| (Array Int Int)) (|.x.1298| Int) (|.x.1300| Int) (|.x.1301| Int) (|.x.1308| Int) (|.x.1313| Int) (|.x.1287| Int) (|.x.1283| Int) (|.x.1295| Int) (|.x.1306| Int) (|.x.1307| Int) (|.x.1314| Int) (|.xtv.1| (Array Int Int)) (|.xtv.2| Int)) (=> (and (and (and (and .loc.6 (not .loc.5)) (not .loc.7)) (not .loc.8)) (and (and (and (and (and (and (and (= N_30 O_30) (not S1_24)) (= H_30 I_30)) (= L_30 M_30)) (= D_30 E_30)) (= J_30 K_30)) (= F_30 G_30)) (= B_30 C_30))) (state |A_30| |B_30| |C_30| |D_30| |E_30| |F_30| |G_30| |H_30| |I_30| |J_30| |K_30| |L_30| |M_30| |N_30| |O_30| |P_30| |Q_30| |R_30| |S_30| |T_30| |U_30| |V_30| |W_30| |X_30| |Y_30| |Z_30| |A1_30| |B1_30| |C1_30| |D1_30| |E1_30| |F1_30| |G1_30| |H1_30| |I1_30| |J1_30| |K1_30| |L1_30| |M1_30| |N1_30| |O1_30| |P1_30| |Q1_30| |S1_24| |.loc.5| |.loc.6| |.loc.7| |.loc.8| |S1_0| |S1_20|))))
(assert (forall ((|A_30| Int) (|B_30| (Array Int Int)) (|C_30| (Array Int Int)) (|D_30| (Array Int Int)) (|E_30| (Array Int Int)) (|F_30| (Array Int Int)) (|G_30| (Array Int Int)) (|H_30| Int) (|I_30| Int) (|J_30| (Array Int Int)) (|K_30| (Array Int Int)) (|L_30| Int) (|M_30| Int) (|N_30| (Array Int Int)) (|O_30| (Array Int Int)) (|P_30| Int) (|Q_30| Int) (|R_30| Int) (|S_30| Int) (|T_30| Int) (|U_30| Int) (|V_30| Int) (|W_30| Int) (|X_30| Int) (|Y_30| Int) (|Z_30| Int) (|A1_30| Int) (|B1_30| Int) (|C1_30| Int) (|D1_30| Int) (|E1_30| Int) (|F1_30| Int) (|G1_30| Int) (|H1_30| Int) (|I1_30| Int) (|J1_30| Int) (|K1_30| Int) (|L1_30| Int) (|M1_30| Int) (|N1_30| Int) (|O1_30| Int) (|P1_30| Int) (|Q1_30| Int) (|S1_24| Bool) (|.loc.5| Bool) (|.loc.6| Bool) (|.loc.7| Bool) (|.loc.8| Bool) (|S1_0| (Array Int Int)) (|S1_20| Int) (|.x.1310| Int) (|.x.1294| Int) (|.x.1290| (Array Int Int)) (|.x.1288| Int) (|.x.1286| (Array Int Int)) (|.x.1284| Int) (|.x.1282| (Array Int Int)) (|.x.1280| (Array Int Int)) (|.x.1276| Int) (|.x.1278| (Array Int Int)) (|.x.1299| Int) (|R1_30| Bool) (|.x.1317| Int) (|.loc.10| Bool) (|.loc.11| Bool) (|.x.1304| Int) (|.x.1316| Int) (|.x.1315| Int) (|.loc.9| Bool) (|.x.1279| (Array Int Int)) (|.x.1312| Int) (|.x.1318| Int) (|.loc.12| Bool) (|.x.1293| Int) (|.x.1292| Int) (|.x.1296| Int) (|.x.1302| Int) (|.x.1305| Int) (|.x.1309| Int) (|.x.1311| Int) (|.x.1303| Int) (|.x.1289| (Array Int Int)) (|.x.1277| (Array Int Int)) (|.x.1281| (Array Int Int)) (|.x.1291| Int) (|.x.1297| Int) (|.x.1285| (Array Int Int)) (|.x.1298| Int) (|.x.1300| Int) (|.x.1301| Int) (|.x.1308| Int) (|.x.1313| Int) (|.x.1287| Int) (|.x.1283| Int) (|.x.1295| Int) (|.x.1306| Int) (|.x.1307| Int) (|.x.1314| Int) (|.xtv.1| (Array Int Int)) (|.xtv.2| Int)) (=> (and (state |A_30| |B_30| |C_30| |D_30| |E_30| |F_30| |G_30| |H_30| |I_30| |J_30| |K_30| |L_30| |M_30| |N_30| |O_30| |P_30| |Q_30| |R_30| |S_30| |T_30| |U_30| |V_30| |W_30| |X_30| |Y_30| |Z_30| |A1_30| |B1_30| |C1_30| |D1_30| |E1_30| |F1_30| |G1_30| |H1_30| |I1_30| |J1_30| |K1_30| |L1_30| |M1_30| |N1_30| |O1_30| |P1_30| |Q1_30| |S1_24| |.loc.5| |.loc.6| |.loc.7| |.loc.8| |S1_0| |S1_20|) (let ((.def_60 (not .loc.5))) (let ((.def_62 (not .loc.7))) (let ((.def_64 (not .loc.8))) (let ((.def_112 (= X_30 .x.1299))) (let ((.def_116 (not .loc.6))) (let ((.def_123 (= S1_24 R1_30))) (let ((.def_128 (= P1_30 .x.1317))) (let ((.def_135 (= P1_30 1))) (let ((.def_142 (not .loc.11))) (let ((.def_144 (not .loc.10))) (let ((.def_149 (= C1_30 .x.1304))) (let ((.def_151 (= O1_30 .x.1316))) (let ((.def_156 (= S1_20 2))) (let ((.def_168 (select F_30 D1_30))) (let ((.def_169 (select .def_168 H1_30))) (let ((.def_170 (= S1_20 .def_169))) (let ((.def_172 (= C1_30 0))) (let ((.def_174 (= .x.1304 1))) (let ((.def_176 (or S1_24 (and (and .def_170 .def_172) .def_174)))) (let ((.def_180 (= N1_30 .x.1315))) (let ((.def_195 (not .loc.9))) (let ((.def_199 (not .def_172))) (let ((.def_201 (= .x.1304 0))) (let ((.def_217 (= D_30 .x.1279))) (let ((.def_224 (and .def_112 .def_149))) (let ((.def_238 (= K1_30 .x.1312))) (let ((.def_241 (= K1_30 3))) (let ((.def_244 (and .def_149 (and .def_112 .def_217)))) (let ((.def_247 (and .def_128 (and .def_151 (and .def_180 .def_244))))) (let ((.def_259 (= Q1_30 .x.1318))) (let ((.def_263 (= S1_20 3))) (let ((.def_278 (not .loc.12))) (let ((.def_281 (or S1_24 .def_170))) (let ((.def_317 (= R_30 .x.1293))) (let ((.def_319 (= Q_30 .x.1292))) (let ((.def_322 (= U_30 .x.1296))) (let ((.def_325 (= A1_30 .x.1302))) (let ((.def_328 (= D1_30 .x.1305))) (let ((.def_331 (= H1_30 .x.1309))) (let ((.def_340 (+ H1_30 4))) (let ((.def_341 (select N_30 D1_30))) (let ((.def_344 (select B_30 D1_30))) (let ((.def_347 (and (= .x.1309 (select .def_341 .def_340)) (= .x.1305 (select .def_344 .def_340))))) (let ((.def_368 (= F1_30 .x.1305))) (let ((.def_369 (= M1_30 .x.1309))) (let ((.def_376 (and .def_325 (and .def_112 (and .def_322 (and .def_317 (and .def_217 .def_319))))))) (let ((.def_377 (and .def_149 .def_376))) (let ((.def_382 (and .def_259 (and .def_128 (and .def_151 (and .def_180 (and .def_238 .def_377))))))) (let ((.def_414 (= J1_30 .x.1311))) (let ((.def_416 (= B1_30 .x.1303))) (let ((.def_432 (= N_30 .x.1289))) (let ((.def_434 (= B_30 .x.1277))) (let ((.def_436 (= F_30 .x.1281))) (let ((.def_438 (and .def_432 (and .def_434 .def_436)))) (let ((.def_440 (select .x.1277 D1_30))) (let ((.def_445 (select .x.1289 D1_30))) (let ((.def_478 (= P_30 .x.1291))) (let ((.def_480 (= P_30 0))) (let ((.def_484 (and .def_432 (and .def_436 (and .def_217 .def_434))))) (let ((.def_530 (and .def_259 (and .def_128 (and .def_151 (and .def_180 (and .def_238 (and .def_414 (and .def_331 (and .def_328 (and .def_149 (and .def_416 (and .def_325 (and .def_112 (and .def_322 (and .def_317 (and .def_319 (and .def_478 (and .def_432 (and .def_436 (and .def_217 (and S1_24 .def_434)))))))))))))))))))))) (let ((.def_548 (and .def_416 (and .def_325 (and .def_112 (and .def_322 (and .def_317 (and .def_319 (and .def_478 .def_484))))))))) (let ((.def_555 (and .def_151 (and .def_180 (and .def_238 (and .def_414 (and .def_331 (and .def_328 (and .def_149 .def_548))))))))) (let ((.def_619 (= V_30 .x.1297))) (let ((.def_621 (= J_30 .x.1285))) (let ((.def_624 (= W_30 .x.1298))) (let ((.def_627 (= Y_30 .x.1300))) (let ((.def_630 (= Z_30 .x.1301))) (let ((.def_633 (= G1_30 .x.1308))) (let ((.def_636 (= L1_30 .x.1313))) (let ((.def_714 (= L_30 .x.1287))) (let ((.def_716 (= H_30 .x.1283))) (let ((.def_719 (= T_30 .x.1295))) (let ((.def_722 (= E1_30 .x.1306))) (let ((.def_725 (= F1_30 .x.1307))) (let ((.def_728 (= M1_30 .x.1314))) (let ((.def_791 (= .x.1289 (store N_30 .x.1305 (store (select N_30 .x.1305) .x.1309 (select (select .x.1289 .x.1305) .x.1309)))))) (let ((.def_798 (= .x.1277 (store B_30 .x.1305 (store (select B_30 .x.1305) .x.1309 (select (select .x.1277 .x.1305) .x.1309)))))) (let ((.def_800 (select F_30 .x.1305))) (let ((.def_841 (and .def_278 (and .def_64 (and .def_144 (and .def_142 (and .def_123 (and .def_60 (and .loc.9 (and .def_116 (and .loc.7 (and .def_259 (and .def_128 (and .def_151 (and .def_180 (and .def_728 (and .def_636 (and .def_238 (and .def_414 (and .def_331 (and .def_633 (and .def_725 (and .def_722 (and .def_328 (and .def_416 (and .def_325 (and .def_630 (and .def_627 (and .def_112 (and .def_624 (and .def_619 (and .def_322 (and .def_719 (and .def_317 (and .def_319 (and .def_714 (and .def_621 (and .def_217 .def_716)))))))))))))))))))))))))))))))))))))) (let ((.def_844 (or S1_24 (not .def_480)))) (and (and (= I1_30 .x.1310) (and (= S_30 .x.1294) (and (= O_30 .x.1290) (and (= M_30 .x.1288) (and (= K_30 .x.1286) (and (= I_30 .x.1284) (and (= G_30 .x.1282) (and (= E_30 .x.1280) (and (= A_30 .x.1276) (= C_30 .x.1278)))))))))) (or (or (or (and (or (and (or (or (or (or (or (or (and (or (and (or (and (or (or (or (and (or (or (or (and (or (and (or (and (or (or (and (or (and (or (and (or (and .def_62 (and (and .loc.5 (and .def_112 R1_30)) .def_116)) (and (or S1_24 (= N1_30 .x.1299)) (and (and .def_60 (and .loc.6 .loc.7)) .def_123))) (and (and .def_128 .loc.10) .loc.11)) (and (or S1_24 (not .def_135)) (and (and (and .def_123 (and .def_60 (and .def_62 (and .def_112 .def_116)))) .def_142) .def_144))) (and .loc.8 (and .def_149 .def_151))) (and (and (or R1_30 (not .def_156)) (and .def_64 (and .def_144 (and .def_142 (and .def_123 (and .loc.7 (and .loc.6 (and .loc.5 (and .def_112 .def_128))))))))) .def_176)) (and .def_180 .loc.9)) (and (and .def_123 (and .loc.11 (and .loc.10 (and .def_62 (and .def_116 (and .loc.8 (and .loc.5 (and .def_128 (and .def_151 (and .def_149 (and S1_24 .def_112))))))))))) .def_195)) (and (or S1_24 (and (and (= .x.1317 .def_169) .def_199) .def_201)) (and .def_195 (and .def_64 (and .def_144 (and .def_142 (and .def_123 (and .loc.7 (and .loc.6 (and .loc.5 (and .def_151 (and .def_112 .def_180)))))))))))) .def_217) (and (or S1_24 (and (= .x.1315 0) (= .x.1279 (store D_30 D1_30 0)))) (and .def_195 (and .def_123 (and .loc.11 (and .loc.10 (and .def_116 (and .loc.8 (and .loc.7 (and .loc.5 (and .def_128 (and .def_151 .def_224)))))))))))) .def_238) (and (or S1_24 .def_241) (and .def_144 (and .def_123 (and .def_60 (and .loc.11 (and .loc.9 (and .def_116 (and .loc.8 (and .loc.7 .def_247)))))))))) (and .def_259 .loc.12)) (and (and (or R1_30 (not .def_263)) (and (and .def_64 (and .def_123 (and .def_60 (and .loc.11 (and .loc.10 (and .loc.9 (and .loc.7 (and .loc.6 (and .def_128 (and .def_151 (and .def_180 (and .def_238 .def_244)))))))))))) .def_278)) .def_281)) (and .def_144 (and .def_123 (and .loc.12 (and .loc.11 (and .loc.9 (and .def_62 (and .loc.8 (and .loc.6 (and .loc.5 (and .def_259 (and .def_128 (and .def_151 (and .def_180 (and .def_238 (and .def_149 (and .def_112 (and S1_24 .def_217)))))))))))))))))) (and (or S1_24 (= .def_169 .x.1312)) (and .def_195 (and .def_144 (and .def_123 (and .loc.12 (and .loc.11 (and .def_62 (and .loc.8 (and .loc.6 (and .loc.5 (and .def_247 .def_259)))))))))))) (and (and (and (and (and .def_317 .def_319) .def_322) .def_325) .def_328) .def_331)) (and (or S1_24 (and (= .x.1279 (store D_30 .x.1296 0)) (and (not .def_241) (and (= H1_30 .x.1292) (and (= D1_30 .x.1296) .def_347))))) (and .def_142 (and .def_123 (and .def_60 (and .loc.12 (and .loc.10 (and .loc.9 (and .def_116 (and .loc.8 (and .loc.7 (and .def_259 (and .def_128 (and .def_151 (and .def_180 .def_224))))))))))))))) (and (or S1_24 (and .def_368 .def_369)) (and .def_142 (and .def_123 (and .def_60 (and .loc.12 (and .loc.10 (and .loc.9 (and .def_62 (and .loc.8 (and .loc.6 .def_382))))))))))) (and (or R1_30 .def_263) (and .def_281 (and .def_195 (and .def_64 (and .def_142 (and .def_123 (and .def_60 (and .loc.12 (and .loc.10 (and .loc.7 (and .loc.6 (and .def_128 (and .def_151 (and .def_180 (and .def_238 (and .def_331 (and .def_328 .def_377)))))))))))))))))) (and .def_414 .def_416)) (and (or S1_24 .def_347) (and .def_278 (and .def_195 (and .def_64 (and .def_123 (and .def_60 (and .loc.11 (and .loc.10 (and .def_62 (and .def_116 .def_382))))))))))) .def_438) (and (or S1_24 (and (= .x.1277 (store B_30 D1_30 (store .def_344 H1_30 (select .def_440 H1_30)))) (and (= .x.1289 (store N_30 D1_30 (store .def_341 H1_30 (select .def_445 H1_30)))) (and (= .x.1281 (store F_30 D1_30 (store .def_168 H1_30 3))) (and .def_368 (and .def_174 .def_369)))))) (and .def_278 (and .def_195 (and .def_64 (and .def_123 (and .loc.11 (and .loc.10 (and .def_116 (and .loc.7 (and .loc.5 (and .def_259 (and .def_128 (and .def_151 (and .def_180 (and .def_238 (and .def_414 (and .def_376 .def_416)))))))))))))))))) .def_478) (and (or S1_24 .def_480) (and .def_278 (and .def_64 (and .def_144 (and .def_123 (and .def_60 (and .loc.11 (and .loc.9 (and .def_116 (and .loc.7 (and .def_259 (and .def_128 (and .def_151 (and .def_180 (and .def_238 (and .def_414 (and .def_331 (and .def_328 (and .def_149 (and .def_416 (and .def_325 (and .def_112 (and .def_322 (and .def_317 (and .def_319 .def_484)))))))))))))))))))))))))) (and .def_195 (and .def_64 (and .def_142 (and .def_123 (and .def_60 (and .loc.12 (and .loc.10 (and .loc.7 (and .loc.6 .def_530)))))))))) (and (or S1_24 .def_135) (and .def_278 (and .def_195 (and .def_144 (and .def_142 (and .def_123 (and .def_60 (and .def_62 (and .def_116 (and .loc.8 (and .def_259 .def_555)))))))))))) (and (or R1_30 .def_156) (and .def_278 (and .def_195 (and .def_176 (and .def_64 (and .def_144 (and .def_142 (and .def_123 (and .loc.7 (and .loc.6 (and .loc.5 (and .def_259 (and .def_128 (and .def_180 (and .def_238 (and .def_414 (and .def_331 (and .def_328 .def_548))))))))))))))))))) (and .def_278 (and .def_64 (and .def_144 (and .def_123 (and .loc.11 (and .loc.9 (and .def_62 (and .loc.6 (and .loc.5 .def_530)))))))))) (and (or S1_24 (and (<= P_30 2147483647) (<= (- 2147483648) P_30))) (and .def_278 (and .def_195 (and .def_64 (and .def_144 (and .def_123 (and .loc.11 (and .def_62 (and .loc.6 (and .loc.5 (and .def_259 (and .def_128 .def_555))))))))))))) (and (and (and (and (and (and .def_619 .def_621) .def_624) .def_627) .def_630) .def_633) .def_636)) (and (or S1_24 (and (= .x.1279 (store D_30 .x.1298 1)) (and (= .x.1285 (store J_30 .x.1298 8)) (and (= (select D_30 .x.1298) 0) (and (not (= .x.1298 0)) (and (= .x.1313 0) (and (= .x.1297 .x.1298) (and (not (<= .x.1298 A_30)) (= .x.1308 .x.1313))))))))) (and (or (or R1_30 (not (= .x.1308 0))) (not (= .x.1297 0))) (and (or R1_30 (and (and (and (and (= .x.1305 (select .def_440 .def_340)) (= .x.1309 (select .def_445 .def_340))) (= .x.1289 (store N_30 D1_30 (store .def_341 .def_340 .x.1308)))) (= .x.1281 (store F_30 D1_30 (store .def_168 .def_340 (select (select .x.1281 D1_30) .def_340))))) (= .x.1277 (store B_30 D1_30 (store .def_344 .def_340 .x.1297))))) (and .def_278 (and .def_64 (and .def_142 (and .def_123 (and .loc.10 (and .loc.9 (and .def_62 (and .def_116 (and .loc.5 (and .def_259 (and .def_128 (and .def_151 (and .def_180 (and .def_238 (and .def_414 (and .def_149 (and .def_416 (and .def_325 (and .def_112 (and .def_322 (and .def_317 (and .def_319 .def_478)))))))))))))))))))))))))) (and (and (and (and (and .def_714 .def_716) .def_719) .def_722) .def_725) .def_728)) (and (or S1_24 (and (and (= .x.1287 0) (= .x.1283 0)) (= S1_0 (store D_30 0 0)))) (and (or R1_30 (and (and (and (and (and .def_174 (and (and (and (not (<= .x.1295 .x.1276)) (not (= .x.1295 0))) (= .x.1306 .x.1314)) (= .x.1295 .x.1307))) (= .x.1306 0)) (= (select S1_0 .x.1295) 0)) (= .x.1285 (store J_30 .x.1295 8))) (= .x.1279 (store S1_0 .x.1295 1)))) (and (or (or R1_30 (not (= .x.1314 0))) (not (= .x.1307 0))) (and (or R1_30 (and (= .x.1305 .x.1307) (= .x.1309 .x.1314))) (and .def_278 (and .def_64 (and .def_142 (and .def_123 (and .def_60 (and .loc.10 (and .loc.9 (and .def_62 (and .loc.6 (and .def_112 .def_438))))))))))))))) (and (and (or R1_30 (and (and (and (and .def_199 .def_201) .def_791) .def_798) (= .x.1281 (store F_30 .x.1305 (store .def_800 .x.1309 2))))) .def_841) .def_844)) (and (or R1_30 (and .def_791 (and .def_798 (and (and .def_172 .def_174) (= .x.1281 (store F_30 .x.1305 (store .def_800 .x.1309 1))))))) (and .def_841 .def_844))))))))))))))))))))))))))))))))))))))))))))))))))))))))))))))))))))))))))))))))))))) (state |.x.1276| |.x.1277| |.x.1278| |.x.1279| |.x.1280| |.x.1281| |.x.1282| |.x.1283| |.x.1284| |.x.1285| |.x.1286| |.x.1287| |.x.1288| |.x.1289| |.x.1290| |.x.1291| |.x.1292| |.x.1293| |.x.1294| |.x.1295| |.x.1296| |.x.1297| |.x.1298| |.x.1299| |.x.1300| |.x.1301| |.x.1302| |.x.1303| |.x.1304| |.x.1305| |.x.1306| |.x.1307| |.x.1308| |.x.1309| |.x.1310| |.x.1311| |.x.1312| |.x.1313| |.x.1314| |.x.1315| |.x.1316| |.x.1317| |.x.1318| |R1_30| |.loc.9| |.loc.10| |.loc.11| |.loc.12| |.xtv.1| |.xtv.2|))))
(assert (forall ((|A_30| Int) (|B_30| (Array Int Int)) (|C_30| (Array Int Int)) (|D_30| (Array Int Int)) (|E_30| (Array Int Int)) (|F_30| (Array Int Int)) (|G_30| (Array Int Int)) (|H_30| Int) (|I_30| Int) (|J_30| (Array Int Int)) (|K_30| (Array Int Int)) (|L_30| Int) (|M_30| Int) (|N_30| (Array Int Int)) (|O_30| (Array Int Int)) (|P_30| Int) (|Q_30| Int) (|R_30| Int) (|S_30| Int) (|T_30| Int) (|U_30| Int) (|V_30| Int) (|W_30| Int) (|X_30| Int) (|Y_30| Int) (|Z_30| Int) (|A1_30| Int) (|B1_30| Int) (|C1_30| Int) (|D1_30| Int) (|E1_30| Int) (|F1_30| Int) (|G1_30| Int) (|H1_30| Int) (|I1_30| Int) (|J1_30| Int) (|K1_30| Int) (|L1_30| Int) (|M1_30| Int) (|N1_30| Int) (|O1_30| Int) (|P1_30| Int) (|Q1_30| Int) (|S1_24| Bool) (|.loc.5| Bool) (|.loc.6| Bool) (|.loc.7| Bool) (|.loc.8| Bool) (|S1_0| (Array Int Int)) (|S1_20| Int) (|.x.1310| Int) (|.x.1294| Int) (|.x.1290| (Array Int Int)) (|.x.1288| Int) (|.x.1286| (Array Int Int)) (|.x.1284| Int) (|.x.1282| (Array Int Int)) (|.x.1280| (Array Int Int)) (|.x.1276| Int) (|.x.1278| (Array Int Int)) (|.x.1299| Int) (|R1_30| Bool) (|.x.1317| Int) (|.loc.10| Bool) (|.loc.11| Bool) (|.x.1304| Int) (|.x.1316| Int) (|.x.1315| Int) (|.loc.9| Bool) (|.x.1279| (Array Int Int)) (|.x.1312| Int) (|.x.1318| Int) (|.loc.12| Bool) (|.x.1293| Int) (|.x.1292| Int) (|.x.1296| Int) (|.x.1302| Int) (|.x.1305| Int) (|.x.1309| Int) (|.x.1311| Int) (|.x.1303| Int) (|.x.1289| (Array Int Int)) (|.x.1277| (Array Int Int)) (|.x.1281| (Array Int Int)) (|.x.1291| Int) (|.x.1297| Int) (|.x.1285| (Array Int Int)) (|.x.1298| Int) (|.x.1300| Int) (|.x.1301| Int) (|.x.1308| Int) (|.x.1313| Int) (|.x.1287| Int) (|.x.1283| Int) (|.x.1295| Int) (|.x.1306| Int) (|.x.1307| Int) (|.x.1314| Int) (|.xtv.1| (Array Int Int)) (|.xtv.2| Int)) (=> (state |A_30| |B_30| |C_30| |D_30| |E_30| |F_30| |G_30| |H_30| |I_30| |J_30| |K_30| |L_30| |M_30| |N_30| |O_30| |P_30| |Q_30| |R_30| |S_30| |T_30| |U_30| |V_30| |W_30| |X_30| |Y_30| |Z_30| |A1_30| |B1_30| |C1_30| |D1_30| |E1_30| |F1_30| |G1_30| |H1_30| |I1_30| |J1_30| |K1_30| |L1_30| |M1_30| |N1_30| |O1_30| |P1_30| |Q1_30| |S1_24| |.loc.5| |.loc.6| |.loc.7| |.loc.8| |S1_0| |S1_20|) (not (and S1_24 (and .loc.8 (and .loc.7 (and .loc.5 .loc.6))))))))
(check-sat)
